NAME: xqf131
COMMENT: Tour length 890.1471612170528
TYPE: TOUR
DIMENSION: 131
TOUR_SECTION
23
22
21
20
19
1
10
3
8
9
18
15
16
13
14
5
47
46
45
44
6
7
2
27
24
25
26
0
28
29
30
31
32
33
34
35
36
37
38
39
40
41
42
43
4
17
12
11
48
49
50
51
52
53
54
55
56
57
58
59
60
68
75
63
64
65
66
70
71
69
62
67
72
73
74
61
76
77
78
79
81
83
84
80
85
82
86
87
88
89
90
91
92
93
94
95
96
107
108
124
117
122
123
113
111
102
129
130
114
115
119
99
127
97
105
100
116
125
112
101
104
121
128
126
120
109
98
106
110
118
103
-1
EOF